2 43 
63 11 
64 36 
31 34 
30 85 
85 72 
7 63 
39 63 
96 25 
57 71 
93 58 
16 96 
22 33 
68 31 
67 29 
31 70 
72 94 
33 89 
82 65 
23 65 
50 60 
37 9 
76 28 
25 72 
5 34 
43 99 
92 11 
95 67 
97 64 
50 64 
93 81 
34 18 
27 68 
7 61 
85 82 
26 35 
43 64 
97 19 
92 22 
43 98 
56 38 
49 1 
50 44 
20 99 
60 22 
63 54 
55 50 
24 82 
70 83 
43 55 
